peakDumbCharging = 22200; 
Machine = anon_enum(16); 
machineSpeed = [3700,3700,3700,3700,3700,3700,3700,3700,3700,3700,3700,3700,3700,3700,3700,3700]; 
machineLoad = [3700,3700,3700,3700,3700,3700,3700,3700,3700,3700,3700,3700,3700,3700,3700,3700]; 
Car = anon_enum(26); 
demandCar = [15520,3720,10280,5720,9480,3200,4800,9720,2400,3560,5720,6160,12720,4760,3920,8160,5480,8960,27880,11160,9720,7040,24040,18520,33000,3280]; 
arrivalCar = [73,72,71,70,67,66,65,65,64,61,59,58,58,57,56,56,56,52,49,48,45,43,42,36,30,27]; 
departureCar = [79,74,77,74,73,68,67,69,66,63,62,61,74,60,58,59,58,59,62,56,49,47,51,43,51,32]; 
